# set
set V := C1 C2 C3 C4 C5 ;
set F := F6 F7 F8 F6_1 F6_2 F7_1 F7_2 F8_1 F8_2 ;
set D0 := N0;
set Dσ := Nσ;

# param
param Cf := 200;		# ECV fixed cost
param C := 200;		# ECV max load
param Q := 77.75;		# ECV/BSV battery level
param r := 1;		# ECV consumption

param Cr := 100;		# recharging cost
param Ct := 10;		# travel cost
param Cs ;		# battery swap cost
param n := 5;		# number of customers
param g := 10.41;	# recharging rate

param m :=
N0 0
C1 10
C2 20
C3 20
C4 30
C5 10
F6 0
F6_1 0
F6_2 0
F7 0
F7_1 0
F7_2 0
F8 0
F8_1 0
F8_2 0
Nσ 0
;

param e :=
N0 0
C1 449
C2 652
C3 647
C4 555
C5 632
F6 0
F6_1 0
F6_2 0
F7 0
F7_1 0
F7_2 0
F8 0
F8_1 0
F8_2 0
Nσ 0
;

param l :=
N0 1236
C1 504
C2 721
C3 726
C4 612
C5 693
F6 1236
F6_1 1236
F6_2 1236
F7 1236
F7_1 1236
F7_2 1236
F8 1236
F8_1 1236
F8_2 1236
Nσ 1236
;

param s :=
N0 0
C1 90
C2 90
C3 90
C4 90
C5 90
F6 0
F6_1 0
F6_2 0
F7 0
F7_1 0
F7_2 0
F8 0
F8_1 0
F8_2 0
Nσ 0
;

param d : N0 C1 C2 C3 C4 C5 F6 F6_1 F6_2 F7 F7_1 F7_2 F8 F8_1 F8_2 Nσ  :=
N0 0.0000 20.6155 38.0789 38.0789 29.7321 21.5407 0.0000 0.0000 0.0000 35.1710 35.1710 35.1710 24.0208 24.0208 24.0208 0.0000
C1 20.6155 0.0000 30.4138 46.0977 48.2597 37.5366 20.6155 20.6155 20.6155 31.0161 31.0161 31.0161 34.6699 34.6699 34.6699 20.6155
C2 38.0789 30.4138 0.0000 30.0000 49.7393 59.6154 38.0789 38.0789 38.0789 6.0828 6.0828 6.0828 60.6383 60.6383 60.6383 38.0789
C3 38.0789 46.0977 30.0000 0.0000 28.1780 55.4437 38.0789 38.0789 38.0789 24.0208 24.0208 24.0208 61.1310 61.1310 61.1310 38.0789
C4 29.7321 48.2597 49.7393 28.1780 0.0000 36.0555 29.7321 29.7321 29.7321 44.1022 44.1022 44.1022 44.6878 44.6878 44.6878 29.7321
C5 21.5407 37.5366 59.6154 55.4437 36.0555 0.0000 21.5407 21.5407 21.5407 56.6127 56.6127 56.6127 9.8489 9.8489 9.8489 21.5407
F6 0.0000 20.6155 38.0789 38.0789 29.7321 21.5407 0.0000 0.0000 0.0000 35.1710 35.1710 35.1710 24.0208 24.0208 24.0208 0.0000
F6_1 0.0000 20.6155 38.0789 38.0789 29.7321 21.5407 0.0000 0.0000 0.0000 35.1710 35.1710 35.1710 24.0208 24.0208 24.0208 0.0000
F6_2 0.0000 20.6155 38.0789 38.0789 29.7321 21.5407 0.0000 0.0000 0.0000 35.1710 35.1710 35.1710 24.0208 24.0208 24.0208 0.0000
F7 35.1710 31.0161 6.0828 24.0208 44.1022 56.6127 35.1710 35.1710 35.1710 0.0000 0.0000 0.0000 58.5491 58.5491 58.5491 35.1710
F7_1 35.1710 31.0161 6.0828 24.0208 44.1022 56.6127 35.1710 35.1710 35.1710 0.0000 0.0000 0.0000 58.5491 58.5491 58.5491 35.1710
F7_2 35.1710 31.0161 6.0828 24.0208 44.1022 56.6127 35.1710 35.1710 35.1710 0.0000 0.0000 0.0000 58.5491 58.5491 58.5491 35.1710
F8 24.0208 34.6699 60.6383 61.1310 44.6878 9.8489 24.0208 24.0208 24.0208 58.5491 58.5491 58.5491 0.0000 0.0000 0.0000 24.0208
F8_1 24.0208 34.6699 60.6383 61.1310 44.6878 9.8489 24.0208 24.0208 24.0208 58.5491 58.5491 58.5491 0.0000 0.0000 0.0000 24.0208
F8_2 24.0208 34.6699 60.6383 61.1310 44.6878 9.8489 24.0208 24.0208 24.0208 58.5491 58.5491 58.5491 0.0000 0.0000 0.0000 24.0208
Nσ 0.0000 20.6155 38.0789 38.0789 29.7321 21.5407 0.0000 0.0000 0.0000 35.1710 35.1710 35.1710 24.0208 24.0208 24.0208 0.0000
;

param t : N0 C1 C2 C3 C4 C5 F6 F6_1 F6_2 F7 F7_1 F7_2 F8 F8_1 F8_2 Nσ  :=
N0 0.0000 20.6155 38.0789 38.0789 29.7321 21.5407 0.0000 0.0000 0.0000 35.1710 35.1710 35.1710 24.0208 24.0208 24.0208 0.0000
C1 20.6155 0.0000 30.4138 46.0977 48.2597 37.5366 20.6155 20.6155 20.6155 31.0161 31.0161 31.0161 34.6699 34.6699 34.6699 20.6155
C2 38.0789 30.4138 0.0000 30.0000 49.7393 59.6154 38.0789 38.0789 38.0789 6.0828 6.0828 6.0828 60.6383 60.6383 60.6383 38.0789
C3 38.0789 46.0977 30.0000 0.0000 28.1780 55.4437 38.0789 38.0789 38.0789 24.0208 24.0208 24.0208 61.1310 61.1310 61.1310 38.0789
C4 29.7321 48.2597 49.7393 28.1780 0.0000 36.0555 29.7321 29.7321 29.7321 44.1022 44.1022 44.1022 44.6878 44.6878 44.6878 29.7321
C5 21.5407 37.5366 59.6154 55.4437 36.0555 0.0000 21.5407 21.5407 21.5407 56.6127 56.6127 56.6127 9.8489 9.8489 9.8489 21.5407
F6 0.0000 20.6155 38.0789 38.0789 29.7321 21.5407 0.0000 0.0000 0.0000 35.1710 35.1710 35.1710 24.0208 24.0208 24.0208 0.0000
F6_1 0.0000 20.6155 38.0789 38.0789 29.7321 21.5407 0.0000 0.0000 0.0000 35.1710 35.1710 35.1710 24.0208 24.0208 24.0208 0.0000
F6_2 0.0000 20.6155 38.0789 38.0789 29.7321 21.5407 0.0000 0.0000 0.0000 35.1710 35.1710 35.1710 24.0208 24.0208 24.0208 0.0000
F7 35.1710 31.0161 6.0828 24.0208 44.1022 56.6127 35.1710 35.1710 35.1710 0.0000 0.0000 0.0000 58.5491 58.5491 58.5491 35.1710
F7_1 35.1710 31.0161 6.0828 24.0208 44.1022 56.6127 35.1710 35.1710 35.1710 0.0000 0.0000 0.0000 58.5491 58.5491 58.5491 35.1710
F7_2 35.1710 31.0161 6.0828 24.0208 44.1022 56.6127 35.1710 35.1710 35.1710 0.0000 0.0000 0.0000 58.5491 58.5491 58.5491 35.1710
F8 24.0208 34.6699 60.6383 61.1310 44.6878 9.8489 24.0208 24.0208 24.0208 58.5491 58.5491 58.5491 0.0000 0.0000 0.0000 24.0208
F8_1 24.0208 34.6699 60.6383 61.1310 44.6878 9.8489 24.0208 24.0208 24.0208 58.5491 58.5491 58.5491 0.0000 0.0000 0.0000 24.0208
F8_2 24.0208 34.6699 60.6383 61.1310 44.6878 9.8489 24.0208 24.0208 24.0208 58.5491 58.5491 58.5491 0.0000 0.0000 0.0000 24.0208
Nσ 0.0000 20.6155 38.0789 38.0789 29.7321 21.5407 0.0000 0.0000 0.0000 35.1710 35.1710 35.1710 24.0208 24.0208 24.0208 0.0000
;
